0 12 39 31 10 58 26 0
0 7 59 11 66 65 38 0
0 30 48 47 36 60 69 21 0
0 2 62 28 61 22 1 6 0
0 33 43 42 41 56 23 63 0
0 67 46 34 4 68 0
0 51 3 44 32 40 17 0
0 57 15 20 37 5 29 45 0
0 9 25 18 24 49 16 0
0 8 35 19 54 13 27 52 0
